Timesteps: 1
s UNSATISFIABLE
real 0.20
user 0.01
sys 0.00
Timesteps: 2
s UNSATISFIABLE
real 0.11
user 0.02
sys 0.00
Timesteps: 3
s UNSATISFIABLE
real 0.17
user 0.07
sys 0.00
Timesteps: 4
s UNSATISFIABLE
real 0.21
user 0.12
sys 0.01
Timesteps: 5
s UNSATISFIABLE
real 0.17
user 0.10
sys 0.00
Timesteps: 6
s UNSATISFIABLE
real 0.39
user 0.29
sys 0.00
Timesteps: 7
s UNSATISFIABLE
real 0.80
user 0.70
sys 0.01
Timesteps: 8
s UNSATISFIABLE
real 1.31
user 1.18
sys 0.00
Timesteps: 9
s UNSATISFIABLE
real 2.04
user 1.88
sys 0.01
Timesteps: 10
s UNSATISFIABLE
real 5.58
user 5.39
sys 0.01
Timesteps: 11
s UNSATISFIABLE
real 4.04
user 3.85
sys 0.01
Timesteps: 12
s UNSATISFIABLE
real 6.00
user 5.80
sys 0.02
Timesteps: 13
s UNSATISFIABLE
real 9.99
user 9.71
sys 0.03
Timesteps: 14
s UNSATISFIABLE
real 9.92
user 9.65
sys 0.04
Timesteps: 15
s UNSATISFIABLE
real 11.22
user 10.94
sys 0.03
Timesteps: 16
s UNSATISFIABLE
real 10.40
user 10.10
sys 0.04
Timesteps: 17
s UNSATISFIABLE
real 12.97
user 12.63
sys 0.04
Timesteps: 18
s UNSATISFIABLE
real 13.76
user 13.40
sys 0.06
Timesteps: 19
s UNSATISFIABLE
real 16.98
user 16.59
sys 0.06
Timesteps: 20
s UNSATISFIABLE
real 17.88
user 17.47
sys 0.06
Timesteps: 21
s UNSATISFIABLE
real 23.30
user 22.85
sys 0.07
Timesteps: 22
s UNSATISFIABLE
real 31.23
user 30.69
sys 0.09
Timesteps: 23
s UNSATISFIABLE
real 25.84
user 25.34
sys 0.08
Timesteps: 24
s UNSATISFIABLE
real 31.71
user 31.16
sys 0.10
Timesteps: 25
s UNSATISFIABLE
real 49.97
user 49.25
sys 0.12
Timesteps: 26
s UNSATISFIABLE
real 54.86
user 54.15
sys 0.14
Timesteps: 27
s UNSATISFIABLE
real 65.24
user 64.49
sys 0.13
Timesteps: 28
s UNSATISFIABLE
real 104.28
user 103.27
sys 0.19
Timesteps: 29
s UNSATISFIABLE
real 206.51
user 204.21
sys 0.29
Timesteps: 30
s UNSATISFIABLE
real 146.19
user 144.37
sys 0.27
Timesteps: 31
s UNSATISFIABLE
real 208.92
user 207.43
sys 0.27
Timesteps: 32
s UNSATISFIABLE
real 233.15
user 231.49
sys 0.30
Timesteps: 33
s UNSATISFIABLE
real 416.78
user 414.38
sys 0.46
Timesteps: 34
s UNSATISFIABLE
real 543.22
user 540.15
sys 0.58
Timesteps: 35
s UNSATISFIABLE
real 1169.36
user 1162.13
sys 0.92
Timesteps: 36
